55905
8, 41, 32, 19, 17, 23, 53, 54, 34, 47, 30, 4, 18, 12, 9, 16, 39, 46, 36, 15, 52, 42, 33, 27, 1, 25, 31, 11, 45, 2, 14, 22, 10, 29, 21, 48, 49, 26, 55, 28, 6, 3, 43, 13, 51, 40, 7, 37, 5, 35, 24, 20, 50, 38, 44
